p cnf 12 22
-12 -11 -9 0
-12 -11 2 0
12 10 8 0
12 10 -2 0
-12 -8 -2 0
12 6 -2 0
12 -4 3 0
-11 -10 -2 0
-11 5 1 0
11 -4 3 0
-10 9 8 0
-10 9 -7 0
-10 -7 3 0
-10 -7 -2 0
10 -6 -3 0
-9 7 -1 0
-9 3 1 0
-8 -7 2 0
-7 4 -3 0
-7 -4 2 0
-6 4 2 0
-4 3 1 0
